Version identifier: 22.1.1.0 | 2022-11-28 | 9160aff4d
Tried aggregator 1 time.
Reduced MIP has 3596 rows, 2286 columns, and 10512 nonzeros.
Reduced MIP has 2286 binaries, 0 generals, 0 SOSs, and 0 indicators.
Presolve time = 0.05 sec. (11.50 ticks)
Found incumbent of value 612268.000000 after 0.09 sec. (13.35 ticks)
Probing time = 0.02 sec. (3.05 ticks)
Tried aggregator 1 time.
Detecting symmetries...
Reduced MIP has 3596 rows, 2286 columns, and 10512 nonzeros.
Reduced MIP has 2286 binaries, 0 generals, 0 SOSs, and 0 indicators.
Presolve time = 0.02 sec. (12.96 ticks)
Probing time = 0.01 sec. (3.05 ticks)
Clique table members: 2300.
MIP emphasis: balance optimality and feasibility.
MIP search method: dynamic search.
Parallel mode: deterministic, using up to 14 threads.
Root relaxation solution time = 0.01 sec. (7.30 ticks)

        Nodes                                         Cuts/
   Node  Left     Objective  IInf  Best Integer    Best Bound    ItCnt     Gap

*     0+    0                       612268.0000        0.0000           100.00%
*     0+    0                       307357.0000        0.0000           100.00%
*     0+    0                       301574.0000        0.0000           100.00%
*     0+    0                       185995.0000        0.0000           100.00%
      0     0    72058.5000    20   185995.0000    72058.5000      196   61.26%
*     0+    0                        72743.0000    72058.5000             0.94%
*     0     0      integral     0    72236.0000       Cuts: 2      197    0.00%
      0     0        cutoff          72236.0000    72236.0000      197    0.00%
Elapsed time = 0.23 sec. (61.92 ticks, tree = 0.01 MB, solutions = 6)

Implied bound cuts applied:  1
Zero-half cuts applied:  1

Root node processing (before b&c):
  Real time             =    0.23 sec. (62.08 ticks)
Parallel b&c, 14 threads:
  Real time             =    0.00 sec. (0.00 ticks)
  Sync time (average)   =    0.00 sec.
  Wait time (average)   =    0.00 sec.
                          ------------
Total (root+branch&cut) =    0.23 sec. (62.08 ticks)
Status: Optimal
Obj: 72236

Instalacoes abertas:
Instalação 0 aberta
Instalação 7 aberta
Instalação 9 aberta
Instalação 11 aberta
Instalação 14 aberta
Instalação 15 aberta
Instalação 17 aberta
Instalação 18 aberta
Instalação 19 aberta
Instalação 22 aberta
Instalação 23 aberta

Atribuições (cliente -> instalação):
Cliente 0 -> Instalação 15
Cliente 1 -> Instalação 22
Cliente 2 -> Instalação 7
Cliente 3 -> Instalação 15
Cliente 4 -> Instalação 18
Cliente 5 -> Instalação 18
Cliente 6 -> Instalação 18
Cliente 7 -> Instalação 14
Cliente 8 -> Instalação 23
Cliente 9 -> Instalação 14
Cliente 10 -> Instalação 23
Cliente 11 -> Instalação 0
Cliente 12 -> Instalação 17
Cliente 13 -> Instalação 18
Cliente 14 -> Instalação 9
Cliente 15 -> Instalação 14
Cliente 16 -> Instalação 7
Cliente 17 -> Instalação 0
Cliente 18 -> Instalação 11
Cliente 19 -> Instalação 0
Cliente 20 -> Instalação 18
Cliente 21 -> Instalação 22
Cliente 22 -> Instalação 19
Cliente 23 -> Instalação 22
Cliente 24 -> Instalação 18
Cliente 25 -> Instalação 7
Cliente 26 -> Instalação 9
Cliente 27 -> Instalação 22
Cliente 28 -> Instalação 19
Cliente 29 -> Instalação 19
Cliente 30 -> Instalação 17
Cliente 31 -> Instalação 18
Cliente 32 -> Instalação 19
Cliente 33 -> Instalação 11
Cliente 34 -> Instalação 17
Cliente 35 -> Instalação 11
Cliente 36 -> Instalação 22
Cliente 37 -> Instalação 0
Cliente 38 -> Instalação 0
Cliente 39 -> Instalação 11
Cliente 40 -> Instalação 0
Cliente 41 -> Instalação 17
Cliente 42 -> Instalação 7
Cliente 43 -> Instalação 11
Cliente 44 -> Instalação 23
Cliente 45 -> Instalação 7
Cliente 46 -> Instalação 11
Cliente 47 -> Instalação 11
Cliente 48 -> Instalação 23
Cliente 49 -> Instalação 17
Cliente 50 -> Instalação 0
Cliente 51 -> Instalação 15
Cliente 52 -> Instalação 0
Cliente 53 -> Instalação 22
Cliente 54 -> Instalação 9
Cliente 55 -> Instalação 15
Cliente 56 -> Instalação 14
Cliente 57 -> Instalação 9
Cliente 58 -> Instalação 7
Cliente 59 -> Instalação 0
Cliente 60 -> Instalação 11
Cliente 61 -> Instalação 15
Cliente 62 -> Instalação 9
Cliente 63 -> Instalação 19
Cliente 64 -> Instalação 18
Cliente 65 -> Instalação 0
Cliente 66 -> Instalação 23
Cliente 67 -> Instalação 18
Cliente 68 -> Instalação 11
Cliente 69 -> Instalação 9
Cliente 70 -> Instalação 19
Cliente 71 -> Instalação 22
Cliente 72 -> Instalação 23
Cliente 73 -> Instalação 0
Cliente 74 -> Instalação 7
Cliente 75 -> Instalação 17
Cliente 76 -> Instalação 17
Cliente 77 -> Instalação 9
Cliente 78 -> Instalação 15
Cliente 79 -> Instalação 14
Cliente 80 -> Instalação 19
Cliente 81 -> Instalação 15
Cliente 82 -> Instalação 15
Cliente 83 -> Instalação 7
Cliente 84 -> Instalação 0
Cliente 85 -> Instalação 19
Cliente 86 -> Instalação 17
Cliente 87 -> Instalação 15
Cliente 88 -> Instalação 0
Cliente 89 -> Instalação 11
Cliente 90 -> Instalação 19
Cliente 91 -> Instalação 15
